\ENCODING=ISO-8859-1
\Problem name: 

Minimize
 obj: 22.8650212651239 x1_1 + 10.8486271125906 x1_2 + 18.1096645070281 x1_3
      + 24.9073570253445 x1_4 + 20.7558419640954 x2_1 + 10.3858837265729 x2_2
      + 17.0451840032576 x2_3 + 18.3843402051742 x2_4 + 19.7031142304301 x3_1
      + 16.3694589121618 x3_2 + 25.4647401554238 x3_3 + 22.9015784744946 x3_4
      + 29.6836723752807 x4_1 + 16.0628827267555 x4_2 + 27.8424093485827 x4_3
      + 24.3853752565609 x4_4 + 22.5395131656817 x5_1 + 27.0843014893845 x5_2
      + 13.3712826876919 x5_3 + 14.9673583196681 x5_4 + 26.035325710884 x6_1
      + 23.8035739666609 x6_2 + 27.3061376372046 x6_3 + 22.3407754461833 x6_4
      + 23.7315126017214 x7_1 + 25.3270198077105 x7_2 + 28.0886165032376 x7_3
      + 13.9510474610966 x7_4 + 26.6618042023033 x8_1 + 27.914342413928 x8_2
      + 29.8426988259562 x8_3 + 24.5893442425382 x8_4 + 28.733814755943 x9_1
      + 18.5392608679091 x9_2 + 12.1021672145838 x9_3 + 29.1542623589676 x9_4
      + 28.6759857429785 x10_1 + 11.489972840818 x10_2 + 25.1671308493617 x10_3
      + 18.269035043156 x10_4
Subject To
 c1:  x1_1 + x1_2 + x1_3 + x1_4  = 1
 c2:  x2_1 + x2_2 + x2_3 + x2_4  = 1
 c3:  x3_1 + x3_2 + x3_3 + x3_4  = 1
 c4:  x4_1 + x4_2 + x4_3 + x4_4  = 1
 c5:  x5_1 + x5_2 + x5_3 + x5_4  = 1
 c6:  x6_1 + x6_2 + x6_3 + x6_4  = 1
 c7:  x7_1 + x7_2 + x7_3 + x7_4  = 1
 c8:  x8_1 + x8_2 + x8_3 + x8_4  = 1
 c9:  x9_1 + x9_2 + x9_3 + x9_4  = 1
 c10: x10_1 + x10_2 + x10_3 + x10_4  = 1
 c11: y1 + y2 + y3 + y4  = 2
 c12: - x1_1 + y1 >= 0
 c13: - x1_2 + y2 >= 0
 c14: - x1_3 + y3 >= 0
 c15: - x1_4 + y4 >= 0
 c16: - x2_1 + y1 >= 0
 c17: - x2_2 + y2 >= 0
 c18: - x2_3 + y3 >= 0
 c19: - x2_4 + y4 >= 0
 c20: - x3_1 + y1 >= 0
 c21: - x3_2 + y2 >= 0
 c22: - x3_3 + y3 >= 0
 c23: - x3_4 + y4 >= 0
 c24: - x4_1 + y1 >= 0
 c25: - x4_2 + y2 >= 0
 c26: - x4_3 + y3 >= 0
 c27: - x4_4 + y4 >= 0
 c28: - x5_1 + y1 >= 0
 c29: - x5_2 + y2 >= 0
 c30: - x5_3 + y3 >= 0
 c31: - x5_4 + y4 >= 0
 c32: - x6_1 + y1 >= 0
 c33: - x6_2 + y2 >= 0
 c34: - x6_3 + y3 >= 0
 c35: - x6_4 + y4 >= 0
 c36: - x7_1 + y1 >= 0
 c37: - x7_2 + y2 >= 0
 c38: - x7_3 + y3 >= 0
 c39: - x7_4 + y4 >= 0
 c40: - x8_1 + y1 >= 0
 c41: - x8_2 + y2 >= 0
 c42: - x8_3 + y3 >= 0
 c43: - x8_4 + y4 >= 0
 c44: - x9_1 + y1 >= 0
 c45: - x9_2 + y2 >= 0
 c46: - x9_3 + y3 >= 0
 c47: - x9_4 + y4 >= 0
 c48: - x10_1 + y1 >= 0
 c49: - x10_2 + y2 >= 0
 c50: - x10_3 + y3 >= 0
 c51: - x10_4 + y4 >= 0
 c52: 10 x1_1 + 10 x2_1 + 10 x3_1 + 8 x4_1 + 11 x5_1 + 11 x6_1 + 8 x7_1
      + 8 x8_1 + 10 x9_1 + 10 x10_1 <= 51
 c53: 10 x1_2 + 10 x2_2 + 10 x3_2 + 8 x4_2 + 11 x5_2 + 11 x6_2 + 8 x7_2
      + 8 x8_2 + 10 x9_2 + 10 x10_2 <= 61
 c54: 10 x1_3 + 10 x2_3 + 10 x3_3 + 8 x4_3 + 11 x5_3 + 11 x6_3 + 8 x7_3
      + 8 x8_3 + 10 x9_3 + 10 x10_3 <= 63
 c55: 10 x1_4 + 10 x2_4 + 10 x3_4 + 8 x4_4 + 11 x5_4 + 11 x6_4 + 8 x7_4
      + 8 x8_4 + 10 x9_4 + 10 x10_4 <= 55
Bounds
 0 <= x1_1 <= 1
 0 <= x1_2 <= 1
 0 <= x1_3 <= 1
 0 <= x1_4 <= 1
 0 <= x2_1 <= 1
 0 <= x2_2 <= 1
 0 <= x2_3 <= 1
 0 <= x2_4 <= 1
 0 <= x3_1 <= 1
 0 <= x3_2 <= 1
 0 <= x3_3 <= 1
 0 <= x3_4 <= 1
 0 <= x4_1 <= 1
 0 <= x4_2 <= 1
 0 <= x4_3 <= 1
 0 <= x4_4 <= 1
 0 <= x5_1 <= 1
 0 <= x5_2 <= 1
 0 <= x5_3 <= 1
 0 <= x5_4 <= 1
 0 <= x6_1 <= 1
 0 <= x6_2 <= 1
 0 <= x6_3 <= 1
 0 <= x6_4 <= 1
 0 <= x7_1 <= 1
 0 <= x7_2 <= 1
 0 <= x7_3 <= 1
 0 <= x7_4 <= 1
 0 <= x8_1 <= 1
 0 <= x8_2 <= 1
 0 <= x8_3 <= 1
 0 <= x8_4 <= 1
 0 <= x9_1 <= 1
 0 <= x9_2 <= 1
 0 <= x9_3 <= 1
 0 <= x9_4 <= 1
 0 <= x10_1 <= 1
 0 <= x10_2 <= 1
 0 <= x10_3 <= 1
 0 <= x10_4 <= 1
 0 <= y1 <= 1
 0 <= y2 <= 1
 0 <= y3 <= 1
 0 <= y4 <= 1
Binaries
 x1_1  x1_2  x1_3  x1_4  x2_1  x2_2  x2_3  x2_4  x3_1  x3_2  x3_3  x3_4  x4_1 
 x4_2  x4_3  x4_4  x5_1  x5_2  x5_3  x5_4  x6_1  x6_2  x6_3  x6_4  x7_1  x7_2 
 x7_3  x7_4  x8_1  x8_2  x8_3  x8_4  x9_1  x9_2  x9_3  x9_4  x10_1  x10_2 
 x10_3  x10_4  y1  y2  y3  y4 
End
